(set-logic QF_UF)
(declare-fun A0 () Bool)
(declare-fun A1 () Bool)
(declare-fun A2 () Bool)
(declare-fun A3 () Bool)
(declare-fun A4 () Bool)
(declare-fun A5 () Bool)
(declare-fun A6 () Bool)
(declare-fun A7 () Bool)
(declare-fun A8 () Bool)
(declare-fun A9 () Bool)
(declare-fun A10 () Bool)
(declare-fun A11 () Bool)
(declare-fun A12 () Bool)
(declare-fun A13 () Bool)
(declare-fun A14 () Bool)
(declare-fun A15 () Bool)
(declare-fun A16 () Bool)
(declare-fun A17 () Bool)
(declare-fun A18 () Bool)
(declare-fun A19 () Bool)
(declare-fun A20 () Bool)
(declare-fun A21 () Bool)
(declare-fun A22 () Bool)
(declare-fun A23 () Bool)
(declare-fun A24 () Bool)
(assert (let ((.def_0 (not A23))) (let ((.def_1 (not A19))) (let ((.def_2 (= .def_1 .def_0))) (let ((.def_3 (not .def_2))) (let ((.def_4 (and A6 A0))) (let ((.def_5 (not .def_4))) (let ((.def_6 (or .def_5 .def_3))) (let ((.def_7 (not A11))) (let ((.def_8 (not A8))) (let ((.def_9 (= .def_8 .def_7))) (let ((.def_10 (not .def_9))) (let ((.def_11 (or .def_8 A7))) (let ((.def_12 (or .def_11 .def_10))) (let ((.def_13 (or .def_12 .def_6))) (let ((.def_14 (not .def_13))) (let ((.def_15 (and A3 A10))) (let ((.def_16 (not .def_15))) (let ((.def_17 (and A22 A15))) (let ((.def_18 (not .def_17))) (let ((.def_19 (and .def_18 .def_16))) (let ((.def_20 (not A18))) (let ((.def_21 (or .def_20 A9))) (let ((.def_22 (and .def_0 A8))) (let ((.def_23 (not .def_22))) (let ((.def_24 (or .def_23 .def_21))) (let ((.def_25 (not .def_24))) (let ((.def_26 (or .def_25 .def_19))) (let ((.def_27 (and .def_26 .def_14))) (let ((.def_28 (or A16 A3))) (let ((.def_29 (not .def_28))) (let ((.def_30 (not A10))) (let ((.def_31 (and A10 .def_30))) (let ((.def_32 (or .def_31 .def_29))) (let ((.def_33 (and A9 A15))) (let ((.def_34 (and A13 .def_7))) (let ((.def_35 (and .def_34 .def_33))) (let ((.def_36 (and .def_35 .def_32))) (let ((.def_37 (not .def_36))) (let ((.def_38 (not A6))) (let ((.def_39 (and A23 .def_38))) (let ((.def_40 (not A1))) (let ((.def_41 (not A9))) (let ((.def_42 (and .def_41 .def_40))) (let ((.def_43 (or .def_42 .def_39))) (let ((.def_44 (or A12 A22))) (let ((.def_45 (and .def_7 A10))) (let ((.def_46 (not .def_45))) (let ((.def_47 (or .def_46 .def_44))) (let ((.def_48 (and .def_47 .def_43))) (let ((.def_49 (not .def_48))) (let ((.def_50 (and .def_49 .def_37))) (let ((.def_51 (not .def_50))) (let ((.def_52 (or .def_51 .def_27))) (let ((.def_53 (and A15 A1))) (let ((.def_54 (and .def_1 .def_40))) (let ((.def_55 (and .def_54 .def_53))) (let ((.def_56 (not .def_55))) (let ((.def_57 (not A4))) (let ((.def_58 (and .def_57 A1))) (let ((.def_59 (not .def_58))) (let ((.def_60 (or .def_8 A21))) (let ((.def_61 (or .def_60 .def_59))) (let ((.def_62 (not .def_61))) (let ((.def_63 (and .def_62 .def_56))) (let ((.def_64 (or .def_0 A17))) (let ((.def_65 (and .def_41 A20))) (let ((.def_66 (not .def_65))) (let ((.def_67 (or .def_66 .def_64))) (let ((.def_68 (or A24 .def_30))) (let ((.def_69 (not .def_68))) (let ((.def_70 (and A14 A18))) (let ((.def_71 (not .def_70))) (let ((.def_72 (and .def_71 .def_69))) (let ((.def_73 (not .def_72))) (let ((.def_74 (and .def_73 .def_67))) (let ((.def_75 (not .def_74))) (let ((.def_76 (or .def_75 .def_63))) (let ((.def_77 (not .def_76))) (let ((.def_78 (not A14))) (let ((.def_79 (or .def_78 .def_57))) (let ((.def_80 (not .def_79))) (let ((.def_81 (and A2 .def_40))) (let ((.def_82 (not .def_81))) (let ((.def_83 (= .def_82 .def_80))) (let ((.def_84 (not .def_83))) (let ((.def_85 (or A21 A5))) (let ((.def_86 (not A22))) (let ((.def_87 (or .def_8 .def_86))) (let ((.def_88 (not .def_87))) (let ((.def_89 (and .def_88 .def_85))) (let ((.def_90 (or .def_89 .def_84))) (let ((.def_91 (= A21 .def_41))) (let ((.def_92 (not .def_91))) (let ((.def_93 (or A23 A17))) (let ((.def_94 (or .def_93 .def_92))) (let ((.def_95 (or .def_86 A17))) (let ((.def_96 (not .def_95))) (let ((.def_97 (not A13))) (let ((.def_98 (or .def_97 .def_38))) (let ((.def_99 (not .def_98))) (let ((.def_100 (and .def_99 .def_96))) (let ((.def_101 (not .def_100))) (let ((.def_102 (or .def_101 .def_94))) (let ((.def_103 (and .def_102 .def_90))) (let ((.def_104 (not .def_103))) (let ((.def_105 (or .def_104 .def_77))) (let ((.def_106 (not .def_105))) (let ((.def_107 (and .def_106 .def_52))) .def_107)))))))))))))))))))))))))))))))))))))))))))))))))))))))))))))))))))))))))))))))))))))))))))))))))))))))))))))
(check-sat)
